check/instances/qjh_uncon.mps
NAME          qjh_uncon
ROWS
 N  obj
COLUMNS
    x1        obj        0.0
    x2        obj       -1.0
    x3        obj       -3.0
BOUNDS
 FR     NONE  x1
 FR     NONE  x2
 FR     NONE  x3
QSECTION      obj
    x1        x1        2.0
    x1        x3        -1.0
    x2        x2        0.2
    x3        x3        2.0
ENDATA
